c "random instance"
p edges 150 1062
e 1 24
e 1 34
e 1 39
e 1 40
e 1 52
e 1 57
e 1 68
e 1 83
e 1 114
e 1 115
e 1 119
e 1 135
e 1 137
e 2 11
e 2 13
e 2 20
e 2 50
e 2 73
e 2 93
e 2 98
e 2 110
e 2 112
e 2 113
e 2 118
e 2 124
e 2 128
e 2 130
e 2 137
e 2 138
e 3 5
e 3 11
e 3 15
e 3 18
e 3 24
e 3 42
e 3 53
e 3 54
e 3 65
e 3 67
e 3 70
e 3 100
e 3 103
e 3 110
e 3 139
e 3 146
e 3 148
e 4 23
e 4 50
e 4 57
e 4 63
e 4 72
e 4 73
e 4 76
e 4 83
e 4 123
e 4 125
e 4 126
e 4 129
e 4 139
e 5 13
e 5 15
e 5 26
e 5 27
e 5 32
e 5 36
e 5 46
e 5 65
e 5 69
e 5 92
e 5 120
e 5 122
e 5 131
e 6 17
e 6 31
e 6 32
e 6 57
e 6 71
e 6 83
e 6 96
e 6 114
e 6 120
e 6 124
e 6 134
e 7 25
e 7 51
e 7 54
e 7 90
e 7 99
e 7 108
e 7 123
e 7 131
e 7 137
e 8 31
e 8 35
e 8 48
e 8 58
e 8 66
e 8 68
e 8 71
e 8 84
e 8 94
e 8 96
e 8 105
e 8 111
e 8 115
e 8 116
e 8 126
e 8 146
e 9 21
e 9 30
e 9 33
e 9 35
e 9 44
e 9 45
e 9 67
e 9 81
e 9 93
e 9 110
e 9 119
e 9 130
e 9 136
e 9 146
e 9 147
e 9 148
e 10 18
e 10 26
e 10 28
e 10 36
e 10 40
e 10 46
e 10 55
e 10 66
e 10 72
e 10 75
e 10 98
e 10 99
e 10 101
e 10 108
e 10 111
e 10 113
e 10 115
e 11 15
e 11 30
e 11 43
e 11 48
e 11 68
e 11 70
e 11 72
e 11 103
e 11 115
e 11 119
e 11 126
e 11 144
e 12 18
e 12 72
e 12 73
e 12 77
e 12 91
e 12 96
e 12 103
e 12 106
e 12 113
e 12 132
e 12 135
e 12 137
e 13 14
e 13 18
e 13 24
e 13 43
e 13 68
e 13 80
e 13 93
e 13 110
e 13 115
e 13 119
e 13 124
e 13 132
e 13 133
e 13 140
e 14 25
e 14 26
e 14 43
e 14 67
e 14 68
e 14 70
e 14 74
e 14 90
e 14 110
e 14 129
e 14 139
e 14 147
e 15 46
e 15 70
e 15 85
e 15 98
e 15 111
e 15 120
e 15 148
e 16 32
e 16 58
e 16 61
e 16 66
e 16 73
e 16 101
e 16 114
e 16 134
e 16 135
e 16 138
e 17 32
e 17 40
e 17 41
e 17 42
e 17 59
e 17 60
e 17 66
e 17 86
e 17 88
e 17 95
e 17 99
e 17 100
e 17 113
e 17 122
e 17 131
e 17 140
e 18 19
e 18 25
e 18 37
e 18 42
e 18 48
e 18 52
e 18 56
e 18 89
e 18 106
e 18 132
e 18 133
e 18 139
e 18 150
e 19 20
e 19 23
e 19 32
e 19 33
e 19 37
e 19 43
e 19 48
e 19 54
e 19 62
e 19 82
e 19 119
e 19 128
e 19 138
e 19 150
e 20 22
e 20 29
e 20 36
e 20 37
e 20 78
e 20 125
e 20 140
e 20 141
e 21 26
e 21 27
e 21 29
e 21 30
e 21 87
e 21 97
e 21 100
e 21 106
e 21 118
e 21 125
e 22 27
e 22 50
e 22 54
e 22 57
e 22 70
e 22 72
e 22 97
e 22 98
e 22 101
e 22 109
e 22 123
e 22 125
e 22 146
e 23 32
e 23 38
e 23 66
e 23 69
e 23 77
e 23 82
e 23 102
e 23 107
e 23 113
e 23 119
e 23 123
e 23 137
e 23 142
e 24 25
e 24 48
e 24 53
e 24 55
e 24 65
e 24 74
e 24 107
e 24 108
e 24 131
e 25 28
e 25 32
e 25 47
e 25 58
e 25 64
e 25 71
e 25 72
e 25 76
e 25 82
e 25 96
e 25 113
e 25 132
e 25 146
e 26 29
e 26 33
e 26 46
e 26 54
e 26 57
e 26 59
e 26 61
e 26 84
e 26 88
e 26 93
e 26 95
e 26 97
e 26 100
e 26 101
e 26 102
e 26 139
e 27 48
e 27 49
e 27 53
e 27 57
e 27 61
e 27 81
e 27 89
e 27 100
e 27 113
e 27 121
e 27 122
e 27 125
e 27 131
e 27 146
e 28 31
e 28 36
e 28 37
e 28 53
e 28 60
e 28 63
e 28 77
e 28 82
e 28 86
e 28 87
e 28 90
e 28 94
e 28 98
e 28 106
e 29 31
e 29 32
e 29 37
e 29 46
e 29 77
e 29 103
e 29 104
e 29 111
e 29 127
e 29 129
e 29 132
e 30 45
e 30 75
e 30 82
e 30 95
e 30 100
e 30 114
e 30 136
e 30 138
e 30 149
e 31 37
e 31 44
e 31 56
e 31 72
e 31 95
e 31 103
e 31 111
e 31 126
e 31 128
e 31 129
e 32 34
e 32 36
e 32 59
e 32 72
e 32 77
e 32 86
e 32 98
e 32 103
e 32 104
e 32 109
e 32 117
e 32 127
e 33 37
e 33 52
e 33 58
e 33 59
e 33 75
e 33 78
e 33 96
e 33 103
e 33 137
e 34 42
e 34 69
e 34 88
e 34 101
e 34 119
e 34 137
e 34 138
e 34 144
e 34 145
e 34 147
e 35 41
e 35 49
e 35 50
e 35 71
e 35 73
e 35 82
e 35 100
e 35 104
e 35 107
e 35 111
e 36 44
e 36 85
e 36 89
e 36 102
e 36 103
e 36 130
e 36 133
e 36 140
e 36 141
e 37 54
e 37 56
e 37 58
e 37 69
e 37 105
e 37 108
e 37 110
e 37 115
e 37 124
e 37 139
e 38 40
e 38 51
e 38 57
e 38 59
e 38 62
e 38 65
e 38 76
e 38 88
e 38 93
e 38 99
e 38 106
e 38 116
e 38 134
e 38 135
e 38 138
e 38 139
e 39 46
e 39 50
e 39 66
e 39 71
e 39 77
e 39 80
e 39 91
e 39 106
e 39 115
e 40 46
e 40 52
e 40 79
e 40 81
e 40 88
e 40 95
e 40 96
e 40 102
e 40 113
e 40 135
e 40 143
e 40 144
e 40 149
e 41 46
e 41 53
e 41 59
e 41 67
e 41 73
e 41 76
e 41 80
e 41 104
e 41 123
e 41 130
e 41 137
e 41 146
e 41 149
e 42 44
e 42 49
e 42 72
e 42 83
e 42 92
e 42 108
e 42 115
e 42 116
e 42 119
e 42 122
e 42 126
e 42 130
e 42 142
e 43 59
e 43 67
e 43 80
e 43 84
e 43 86
e 43 131
e 43 141
e 43 143
e 43 146
e 44 60
e 44 78
e 44 83
e 44 88
e 44 105
e 44 109
e 44 139
e 44 150
e 45 50
e 45 58
e 45 66
e 45 120
e 45 136
e 45 144
e 45 147
e 46 53
e 46 57
e 46 59
e 46 69
e 46 75
e 46 91
e 46 97
e 46 106
e 46 125
e 46 138
e 46 139
e 47 63
e 47 71
e 47 78
e 47 79
e 47 94
e 47 96
e 47 100
e 48 58
e 48 102
e 48 112
e 48 127
e 48 147
e 49 52
e 49 62
e 49 65
e 49 71
e 49 91
e 49 120
e 49 133
e 49 141
e 50 73
e 50 86
e 50 88
e 50 93
e 50 100
e 50 102
e 50 103
e 50 111
e 50 120
e 50 126
e 50 132
e 50 135
e 51 59
e 51 65
e 51 70
e 51 79
e 51 84
e 51 96
e 51 104
e 51 120
e 51 134
e 52 61
e 52 65
e 52 67
e 52 73
e 52 80
e 52 85
e 52 86
e 52 109
e 52 114
e 52 122
e 52 132
e 52 137
e 52 142
e 52 146
e 53 70
e 53 88
e 53 90
e 53 92
e 53 132
e 53 150
e 54 74
e 54 88
e 54 108
e 54 110
e 54 130
e 54 132
e 54 137
e 55 71
e 55 78
e 55 81
e 55 95
e 55 98
e 55 100
e 55 108
e 55 119
e 55 121
e 55 136
e 55 137
e 56 73
e 56 84
e 56 95
e 56 100
e 56 101
e 56 102
e 56 113
e 56 136
e 57 67
e 57 77
e 57 78
e 57 86
e 57 110
e 57 126
e 57 132
e 57 149
e 58 60
e 58 73
e 58 85
e 58 87
e 58 94
e 58 101
e 58 106
e 58 107
e 58 113
e 58 141
e 59 86
e 59 92
e 59 98
e 59 99
e 59 100
e 59 114
e 59 124
e 59 142
e 59 146
e 60 70
e 60 99
e 60 118
e 60 119
e 60 131
e 60 138
e 60 143
e 60 150
e 61 68
e 61 82
e 61 96
e 61 99
e 61 102
e 61 104
e 61 106
e 61 108
e 61 109
e 61 119
e 61 150
e 62 64
e 62 77
e 62 78
e 62 83
e 62 85
e 62 97
e 62 105
e 62 107
e 62 109
e 63 64
e 63 94
e 63 100
e 63 115
e 63 123
e 63 131
e 63 132
e 63 135
e 63 146
e 64 79
e 64 82
e 64 108
e 64 109
e 64 117
e 64 132
e 64 144
e 65 86
e 65 103
e 65 107
e 65 110
e 65 114
e 65 149
e 66 68
e 66 69
e 66 84
e 66 86
e 66 91
e 66 98
e 66 99
e 66 102
e 66 107
e 66 111
e 66 114
e 66 118
e 66 127
e 66 129
e 66 137
e 66 141
e 67 69
e 67 82
e 67 90
e 67 100
e 67 101
e 67 109
e 67 124
e 67 140
e 67 142
e 67 143
e 67 144
e 68 72
e 68 87
e 68 92
e 68 93
e 68 122
e 68 135
e 68 136
e 68 141
e 68 145
e 68 150
e 69 91
e 69 92
e 69 115
e 69 141
e 70 73
e 70 80
e 70 85
e 70 92
e 70 101
e 70 116
e 70 123
e 70 129
e 71 73
e 71 87
e 71 90
e 71 106
e 71 113
e 71 117
e 71 147
e 72 80
e 72 134
e 73 81
e 73 114
e 73 123
e 73 130
e 73 141
e 73 145
e 73 148
e 74 80
e 74 138
e 74 145
e 75 83
e 75 93
e 75 100
e 75 105
e 75 111
e 75 115
e 75 121
e 75 127
e 75 134
e 75 141
e 75 148
e 76 86
e 76 91
e 76 95
e 76 104
e 76 125
e 76 143
e 77 83
e 77 104
e 77 124
e 77 128
e 77 134
e 77 137
e 78 81
e 78 86
e 78 89
e 78 96
e 78 114
e 78 116
e 78 117
e 78 121
e 78 132
e 78 137
e 78 138
e 78 140
e 78 143
e 79 80
e 79 89
e 79 94
e 79 95
e 79 104
e 79 113
e 79 116
e 79 127
e 79 128
e 80 90
e 80 93
e 80 98
e 80 108
e 80 112
e 80 119
e 80 124
e 80 141
e 80 150
e 81 84
e 81 94
e 81 110
e 81 144
e 82 91
e 82 96
e 82 122
e 82 134
e 82 139
e 82 148
e 83 93
e 83 94
e 83 105
e 83 120
e 83 123
e 83 133
e 83 147
e 84 106
e 84 121
e 84 124
e 84 131
e 84 133
e 85 145
e 86 93
e 86 103
e 86 112
e 86 115
e 86 135
e 87 105
e 87 106
e 87 111
e 87 118
e 87 123
e 87 135
e 87 140
e 87 141
e 88 97
e 88 99
e 88 112
e 88 117
e 88 119
e 88 139
e 88 143
e 89 93
e 89 94
e 89 114
e 89 129
e 89 133
e 89 135
e 90 98
e 90 101
e 90 107
e 90 122
e 90 139
e 91 120
e 91 128
e 92 105
e 92 115
e 92 125
e 92 133
e 92 137
e 92 140
e 92 141
e 92 149
e 93 101
e 93 104
e 93 133
e 94 102
e 94 103
e 94 107
e 94 112
e 94 118
e 94 120
e 94 134
e 94 140
e 94 148
e 95 108
e 95 116
e 95 119
e 95 125
e 95 144
e 96 112
e 96 117
e 96 121
e 96 128
e 96 140
e 96 142
e 97 100
e 97 101
e 97 104
e 97 116
e 97 131
e 98 99
e 98 106
e 98 107
e 98 114
e 98 136
e 98 140
e 99 103
e 99 125
e 99 137
e 100 114
e 100 120
e 100 142
e 101 110
e 101 122
e 101 141
e 101 145
e 102 127
e 103 105
e 103 112
e 103 116
e 103 124
e 103 142
e 103 149
e 104 111
e 104 131
e 104 137
e 104 142
e 104 149
e 105 139
e 106 108
e 106 110
e 106 126
e 106 141
e 106 142
e 106 147
e 107 115
e 107 125
e 107 136
e 107 141
e 108 109
e 108 112
e 108 117
e 108 144
e 108 150
e 109 112
e 109 113
e 109 114
e 109 129
e 109 135
e 109 139
e 110 114
e 110 116
e 110 118
e 110 131
e 110 146
e 111 116
e 111 120
e 111 125
e 111 131
e 112 117
e 112 126
e 112 133
e 112 143
e 112 150
e 113 115
e 113 127
e 113 136
e 113 139
e 113 143
e 113 146
e 114 119
e 114 130
e 115 125
e 115 128
e 115 131
e 115 142
e 116 134
e 116 137
e 116 139
e 116 144
e 116 148
e 117 118
e 117 121
e 117 122
e 117 125
e 117 137
e 117 150
e 118 141
e 119 120
e 119 125
e 119 146
e 120 138
e 120 148
e 121 123
e 121 133
e 121 139
e 121 150
e 122 146
e 123 135
e 123 139
e 123 140
e 124 125
e 124 142
e 124 144
e 125 127
e 125 131
e 125 132
e 125 134
e 125 136
e 125 139
e 125 149
e 126 132
e 127 134
e 127 142
e 128 134
e 128 147
e 129 140
e 129 144
e 130 147
e 133 144
e 134 139
e 135 137
e 135 146
e 136 139
e 136 149
e 137 147
e 137 148
e 138 141
e 139 146
e 140 143
e 142 144
e 143 148
e 144 145
e 144 148
